benchmark/results/graph__10-1000-0.10-03_3/graph__10-1000-0.10-03_3_Quinton_Benders_aux.lp
\ This file has been generated by DOcplex
\ ENCODING=ISO-8859-1
\Problem name: Quinton Benders_auxiliary_sub

Minimize
 obj: 0.000920810313 pi_nr_a0 + 0.003339842116 pi_nr_a1
      + 0.001358695644 pi_nr_a2 + 0.001064962744 pi_nr_a3
      + 0.001170085363 pi_nr_a4 + 0.000917156801 pi_nr_a5
      + 0.001092478126 pi_nr_a6 + 0.001607717042 pi_nr_a7
      + 0.001137656428 pi_nr_a8 + 0.000886524836 pi_nr_a9 + pi_p_a4_a3
      + pi_p_a5_a6 + pi_p_a8_a1 + pi_p_a5_a2 + pi_p_a7_a7 + pi_p_a0_a1
      + pi_p_a6_a0 + pi_p_a5_a4 + pi_p_a6_a6
      + 2323.667091979929 pi_d_a0_a1_proc_1 + 0.000000075154 pi_d_a1_a0_proc_1
      + 0.250057488718 pi_d_a0_a2_proc_1 + 0.750000000000 pi_d_a2_a0_proc_1
      + 1.218769178949 pi_d_a0_a3_proc_1 - 0.218711390850 pi_d_a3_a0_proc_1
      + 0.226562515013 pi_d_a0_a4_proc_1 + 2572.773437484987 pi_d_a4_a0_proc_1
      + 644.018708043185 pi_d_a0_a5_proc_1 + 1287.250019214661 pi_d_a5_a0_proc_1
      + 30.773463162853 pi_d_a0_a6_proc_1 + 50.601517954594 pi_d_a6_a0_proc_1
      + 1170.154387208914 pi_d_a0_a7_proc_1
      + 1402.845612791049 pi_d_a7_a0_proc_1
      + 1935.368055676020 pi_d_a0_a8_proc_1 + 637.631944323980 pi_d_a8_a0_proc_1
      + 345.349679955901 pi_d_a0_a9_proc_1 + 2227.650262256037 pi_d_a9_a0_proc_1
      + 2250.656991701129 pi_d_a1_a2_proc_2
      + 3411.676544140598 pi_d_a1_a2_proc_0
      + 2001.167130078713 pi_d_a1_a2_proc_1 + 571.989881087502 pi_d_a2_a1_proc_2
      + 1733.009433526971 pi_d_a2_a1_proc_0 + 322.500019465087 pi_d_a2_a1_proc_1
      + 3080.336910410314 pi_d_a1_a3_proc_0
      + 1669.827496647829 pi_d_a1_a3_proc_1
      + 2064.349066957836 pi_d_a3_a1_proc_0 + 653.839653195352 pi_d_a3_a1_proc_1
      + 201.077399325106 pi_d_a1_a4_proc_2 + 799.290536653732 pi_d_a1_a4_proc_0
      + 1599.184287030731 pi_d_a1_a4_proc_1
      + 1898.375917318727 pi_d_a4_a1_proc_2
      + 2496.589054647353 pi_d_a4_a1_proc_0
      + 3296.482805024351 pi_d_a4_a1_proc_1 + 641.232859410248 pi_d_a1_a5_proc_2
      + 2767.384039007115 pi_d_a1_a5_proc_0
      + 2322.010313693377 pi_d_a1_a5_proc_1 + 251.148051336421 pi_d_a5_a1_proc_2
      + 2377.299230933288 pi_d_a5_a1_proc_0
      + 1931.925505619550 pi_d_a5_a1_proc_1
      + 1214.209882174988 pi_d_a1_a6_proc_2
      + 2335.042030567870 pi_d_a1_a6_proc_0
      + 1004.907511250826 pi_d_a1_a6_proc_1
      + 1608.436932845865 pi_d_a6_a1_proc_2
      + 2729.269081238747 pi_d_a6_a1_proc_0
      + 1399.134561921703 pi_d_a6_a1_proc_1
      + 2489.780455944146 pi_d_a1_a7_proc_0
      + 3651.270984393525 pi_d_a1_a7_proc_1 + 82.905579212141 pi_d_a7_a1_proc_0
      + 1244.396107661520 pi_d_a7_a1_proc_1
      + 2571.619384765625 pi_d_a1_a8_proc_0
      + 3733.109913215041 pi_d_a1_a8_proc_1 + 1.066650390625 pi_d_a8_a1_proc_0
      + 1162.557178840041 pi_d_a8_a1_proc_1 + 0.953155313439 pi_d_a1_a9_proc_2
      + 2323.463207158584 pi_d_a1_a9_proc_1 + 249.693775263291 pi_d_a9_a1_proc_2
      + 2572.203827108435 pi_d_a9_a1_proc_1
      + 2572.976535420488 pi_d_a2_a3_proc_0 + 0.976650697286 pi_d_a2_a3_proc_1
      + 2572.023349302732 pi_d_a3_a2_proc_0 + 0.023464579531 pi_d_a3_a2_proc_1
      + 2710.504286651933 pi_d_a2_a4_proc_2
      + 2147.697814052446 pi_d_a2_a4_proc_0
      + 1786.101093468728 pi_d_a2_a4_proc_1
      + 1711.302157203196 pi_d_a4_a2_proc_2
      + 1148.495684603708 pi_d_a4_a2_proc_0 + 786.898964019990 pi_d_a4_a2_proc_1
      + 2572.001076001247 pi_d_a2_a5_proc_2
      + 3537.132645670000 pi_d_a2_a5_proc_0
      + 1930.268449395546 pi_d_a2_a5_proc_1 + 642.732961956719 pi_d_a5_a2_proc_2
      + 1607.864531625471 pi_d_a5_a2_proc_0 + 1.000335351017 pi_d_a5_a2_proc_1
      + 2593.015162736452 pi_d_a2_a6_proc_2
      + 2552.827701201220 pi_d_a2_a6_proc_0 + 61.202710923460 pi_d_a2_a6_proc_1
      + 2551.984779495697 pi_d_a6_a2_proc_2
      + 2511.797317960466 pi_d_a6_a2_proc_0 + 20.172327682705 pi_d_a6_a2_proc_1
      + 2554.405944034474 pi_d_a2_a7_proc_0
      + 2554.406001523137 pi_d_a2_a7_proc_1 + 18.593998476881 pi_d_a7_a2_proc_0
      + 18.594055965544 pi_d_a7_a2_proc_1 + 1888.812424546106 pi_d_a2_a8_proc_0
      + 1888.812482034806 pi_d_a2_a8_proc_1 + 684.187517965212 pi_d_a8_a2_proc_0
      + 684.187575453912 pi_d_a8_a2_proc_1 + 2516.740867623674 pi_d_a2_a9_proc_2
      + 2516.740838579989 pi_d_a2_a9_proc_1 + 56.259190164352 pi_d_a9_a2_proc_2
      + 56.259161120666 pi_d_a9_a2_proc_1 + 462.044695891543 pi_d_a3_a4_proc_0
      + 100.447975607225 pi_d_a3_a4_proc_1 + 2834.148802465193 pi_d_a4_a3_proc_0
      + 2472.552082180874 pi_d_a4_a3_proc_1
      + 1609.277380260002 pi_d_a3_a5_proc_0 + 2.413184284948 pi_d_a3_a5_proc_1
      + 3535.719796736051 pi_d_a5_a3_proc_0
      + 1928.855600760997 pi_d_a5_a3_proc_1
      + 2492.672414942640 pi_d_a3_a6_proc_0 + 1.047424964280 pi_d_a3_a6_proc_1
      + 2571.952603919628 pi_d_a6_a3_proc_0 + 80.327613941267 pi_d_a6_a3_proc_1
      + 539.958218819695 pi_d_a3_a7_proc_0 + 539.958276607757 pi_d_a3_a7_proc_1
      + 2033.041723392243 pi_d_a7_a3_proc_0
      + 2033.041781180305 pi_d_a7_a3_proc_1
      + 2363.882729640930 pi_d_a3_a8_proc_0
      + 2363.882787429029 pi_d_a3_a8_proc_1 + 209.117212570971 pi_d_a8_a3_proc_0
      + 209.117270359070 pi_d_a8_a3_proc_1 + 827.220771477435 pi_d_a3_a9_proc_1
      + 1745.779228522601 pi_d_a9_a3_proc_1
      + 2206.753385462813 pi_d_a4_a5_proc_2
      + 2609.078540020722 pi_d_a4_a5_proc_0
      + 3212.617508185152 pi_d_a4_a5_proc_1 + 284.787096350355 pi_d_a5_a4_proc_2
      + 687.112250908265 pi_d_a5_a4_proc_0 + 1290.651219072693 pi_d_a5_a4_proc_1
      + 2574.506167664514 pi_d_a4_a6_proc_2
      + 1971.512291018439 pi_d_a4_a6_proc_0
      + 1690.290465179562 pi_d_a4_a6_proc_1
      + 1847.300218422837 pi_d_a6_a4_proc_2
      + 1244.306341776762 pi_d_a6_a4_proc_0 + 963.084515937885 pi_d_a6_a4_proc_1
      + 62.227380374563 pi_d_a4_a7_proc_0 + 2272.630602302109 pi_d_a4_a7_proc_1
      + 661.966175770308 pi_d_a7_a4_proc_0 + 2872.369397697854 pi_d_a7_a4_proc_1
      + 21.070332601783 pi_d_a4_a8_proc_0 + 2231.473554529366 pi_d_a4_a8_proc_1
      + 703.123223543052 pi_d_a8_a4_proc_0 + 2913.526445470634 pi_d_a8_a4_proc_1
      + 1.000038460656 pi_d_a4_a9_proc_2 + 1648.596758745011 pi_d_a4_a9_proc_1
      + 1848.806463182571 pi_d_a9_a4_proc_2
      + 3496.403183466926 pi_d_a9_a4_proc_1
      + 2610.895605444395 pi_d_a5_a6_proc_2
      + 3535.839771066560 pi_d_a5_a6_proc_0
      + 2009.350469536947 pi_d_a5_a6_proc_1 + 603.838374745793 pi_d_a6_a5_proc_2
      + 1528.782540367959 pi_d_a6_a5_proc_0 + 2.293238838346 pi_d_a6_a5_proc_1
      + 1887.704976059176 pi_d_a5_a7_proc_0
      + 2852.840722295986 pi_d_a5_a7_proc_1 + 685.292258725013 pi_d_a7_a5_proc_0
      + 1650.428004961823 pi_d_a7_a5_proc_1
      + 1450.230526398291 pi_d_a5_a8_proc_0
      + 2415.366272635137 pi_d_a5_a8_proc_1
      + 1122.766708385862 pi_d_a8_a5_proc_0
      + 2087.902454622708 pi_d_a8_a5_proc_1 + 561.803505940424 pi_d_a5_a9_proc_2
      + 2492.070792802283 pi_d_a5_a9_proc_1 + 80.930589805640 pi_d_a9_a5_proc_2
      + 2011.197876667500 pi_d_a9_a5_proc_1
      + 1928.981857293281 pi_d_a6_a7_proc_0
      + 2009.356809526785 pi_d_a6_a7_proc_1 + 563.643219357122 pi_d_a7_a6_proc_0
      + 644.018171590626 pi_d_a7_a6_proc_1 + 2009.593808311789 pi_d_a6_a8_proc_0
      + 2089.968760545329 pi_d_a6_a8_proc_1 + 483.031268338578 pi_d_a8_a6_proc_0
      + 563.406220572118 pi_d_a8_a6_proc_1 + 683.695922198106 pi_d_a6_a9_proc_2
      + 723.883383852675 pi_d_a6_a9_proc_1 + 1889.304077822142 pi_d_a9_a6_proc_2
      + 1929.491539476710 pi_d_a9_a6_proc_1 + 0.000000000037 pi_d_a7_a8_proc_0
      + 2572 pi_d_a7_a8_proc_1 + pi_d_a8_a7_proc_0
      + 2572.999999999964 pi_d_a8_a7_proc_1
      + 1918.950586780360 pi_d_a7_a9_proc_1
      + 3226.049355431541 pi_d_a9_a7_proc_1
      + 2571.954829169150 pi_d_a8_a9_proc_1
      + 2573.045113042787 pi_d_a9_a8_proc_1 + pi_y2_a0_proc_1
      + 0.000122070312 pi_y2_a1_proc_0 + 0.096941255033 pi_y2_a1_proc_1
      + 0.902936674654 pi_y2_a1_proc_2 + 0.000000022352 pi_y2_a2_proc_0
      + 0.999999977648 pi_y2_a2_proc_1 + 0.000000000000 pi_y2_a2_proc_2
      + 0.000000022468 pi_y2_a3_proc_0 + 0.999999977532 pi_y2_a3_proc_1
      + 0.718820545822 pi_y2_a4_proc_0 + 0.000000000000 pi_y2_a4_proc_1
      + 0.281179454178 pi_y2_a4_proc_2 + 0.000001075123 pi_y2_a5_proc_0
      + 0.249506715685 pi_y2_a5_proc_1 + 0.750492209192 pi_y2_a5_proc_2
      + 0.031249970198 pi_y2_a6_proc_0 + 0.968750007342 pi_y2_a6_proc_1
      + 0.000000022460 pi_y2_a6_proc_2 + 1.000000000000 pi_y2_a7_proc_0
      + 0.000000000000 pi_y2_a7_proc_1 + pi_y2_a8_proc_0
      + 0.000000000000 pi_y2_a8_proc_1 + 0.000000022468 pi_y2_a9_proc_1
      + 0.999999977532 pi_y2_a9_proc_2
Subject To
 c1: 0.000920810313 pi_nr_a0 + 0.003496503497 pi_nr_a1 + 0.001358695652 pi_nr_a2
     + 0.001064962726 pi_nr_a3 + 0.001302083333 pi_nr_a4
     + 0.000891265597 pi_nr_a5 + 0.001101321586 pi_nr_a6
     + 0.001607717042 pi_nr_a7 + 0.001137656428 pi_nr_a8
     + 0.000886524823 pi_nr_a9 + pi_p_a4_a3 + pi_p_a5_a6 + pi_p_a8_a1
     + pi_p_a5_a2 + pi_p_a7_a7 + pi_p_a0_a1 + pi_p_a6_a0 + pi_p_a5_a4
     + pi_p_a6_a6 + 2573 pi_d_a0_a1_proc_1 + pi_d_a2_a0_proc_1
     + pi_d_a0_a3_proc_1 + 2573 pi_d_a4_a0_proc_1 - pi_d_a0_a5_proc_1
     + 2574 pi_d_a5_a0_proc_1 + pi_d_a6_a0_proc_1 + pi_d_a0_a7_proc_1
     + 2572 pi_d_a7_a0_proc_1 + 2572 pi_d_a0_a8_proc_1 + pi_d_a8_a0_proc_1
     + 2573 pi_d_a9_a0_proc_1 + 2572 pi_d_a1_a2_proc_2 + 3858 pi_d_a1_a2_proc_0
     + 2572 pi_d_a1_a2_proc_1 + pi_d_a2_a1_proc_2 + 1287 pi_d_a2_a1_proc_0
     + pi_d_a2_a1_proc_1 + 3858 pi_d_a1_a3_proc_0 + 2572 pi_d_a1_a3_proc_1
     + 1287 pi_d_a3_a1_proc_0 + pi_d_a3_a1_proc_1 - pi_d_a1_a4_proc_2
     - pi_d_a1_a4_proc_0 + 1285 pi_d_a1_a4_proc_1 + 2574 pi_d_a4_a1_proc_2
     + 2574 pi_d_a4_a1_proc_0 + 3860 pi_d_a4_a1_proc_1 - pi_d_a1_a5_proc_2
     + 2571 pi_d_a1_a5_proc_0 + 2571 pi_d_a1_a5_proc_1 + 2 pi_d_a5_a1_proc_2
     + 2574 pi_d_a5_a1_proc_0 + 2574 pi_d_a5_a1_proc_1 + 1286 pi_d_a1_a6_proc_0
     + 2573 pi_d_a6_a1_proc_2 + 3859 pi_d_a6_a1_proc_0 + 2573 pi_d_a6_a1_proc_1
     + 2572 pi_d_a1_a7_proc_0 + 3858 pi_d_a1_a7_proc_1 + pi_d_a7_a1_proc_0
     + 1287 pi_d_a7_a1_proc_1 + 2572 pi_d_a1_a8_proc_0 + 3858 pi_d_a1_a8_proc_1
     + pi_d_a8_a1_proc_0 + 1287 pi_d_a8_a1_proc_1 + 2572 pi_d_a1_a9_proc_1
     + pi_d_a9_a1_proc_2 + 2573 pi_d_a9_a1_proc_1 + 2573 pi_d_a2_a3_proc_0
     + pi_d_a2_a3_proc_1 + 2572 pi_d_a3_a2_proc_0 + 3858 pi_d_a2_a4_proc_2
     + 2572 pi_d_a2_a4_proc_0 + 2572 pi_d_a2_a4_proc_1 + 1287 pi_d_a4_a2_proc_2
     + pi_d_a4_a2_proc_0 + pi_d_a4_a2_proc_1 + 2572 pi_d_a2_a5_proc_2
     + 3858 pi_d_a2_a5_proc_0 + 2572 pi_d_a2_a5_proc_1 + pi_d_a5_a2_proc_2
     + 1287 pi_d_a5_a2_proc_0 + pi_d_a5_a2_proc_1 + 2573 pi_d_a2_a6_proc_2
     + 2573 pi_d_a2_a6_proc_0 + pi_d_a2_a6_proc_1 + 2572 pi_d_a6_a2_proc_2
     + 2572 pi_d_a6_a2_proc_0 + 2572 pi_d_a2_a7_proc_0 + 2572 pi_d_a2_a7_proc_1
     + pi_d_a7_a2_proc_0 + pi_d_a7_a2_proc_1 + 2572 pi_d_a2_a8_proc_0
     + 2572 pi_d_a2_a8_proc_1 + pi_d_a8_a2_proc_0 + pi_d_a8_a2_proc_1
     + 2572 pi_d_a2_a9_proc_2 + 2572 pi_d_a2_a9_proc_1 + pi_d_a9_a2_proc_2
     + pi_d_a9_a2_proc_1 + 2573 pi_d_a4_a3_proc_0 + 2573 pi_d_a4_a3_proc_1
     + 1288 pi_d_a3_a5_proc_0 + 2 pi_d_a3_a5_proc_1 + 3857 pi_d_a5_a3_proc_0
     + 2571 pi_d_a5_a3_proc_1 + 2572 pi_d_a3_a6_proc_0 + 2573 pi_d_a6_a3_proc_0
     + pi_d_a6_a3_proc_1 + 2573 pi_d_a7_a3_proc_0 + 2573 pi_d_a7_a3_proc_1
     + 2572 pi_d_a3_a8_proc_0 + 2572 pi_d_a3_a8_proc_1 + pi_d_a8_a3_proc_0
     + pi_d_a8_a3_proc_1 + 2573 pi_d_a9_a3_proc_1 + 2572 pi_d_a4_a5_proc_2
     + 2572 pi_d_a4_a5_proc_0 + 3858 pi_d_a4_a5_proc_1 + pi_d_a5_a4_proc_2
     + pi_d_a5_a4_proc_0 + 1287 pi_d_a5_a4_proc_1 + 3859 pi_d_a4_a6_proc_2
     + 2573 pi_d_a4_a6_proc_0 + 2573 pi_d_a4_a6_proc_1 + 1286 pi_d_a6_a4_proc_2
     + pi_d_a4_a7_proc_0 + 2573 pi_d_a4_a7_proc_1 + 2572 pi_d_a7_a4_proc_1
     + pi_d_a4_a8_proc_0 + 2573 pi_d_a4_a8_proc_1 + 2572 pi_d_a8_a4_proc_1
     + pi_d_a4_a9_proc_2 + 1287 pi_d_a4_a9_proc_1 + 2572 pi_d_a9_a4_proc_2
     + 3858 pi_d_a9_a4_proc_1 + 2570 pi_d_a5_a6_proc_2 + 3856 pi_d_a5_a6_proc_0
     + 2570 pi_d_a5_a6_proc_1 + 3 pi_d_a6_a5_proc_2 + 1289 pi_d_a6_a5_proc_0
     + 3 pi_d_a6_a5_proc_1 + 2572 pi_d_a5_a7_proc_0 + 3858 pi_d_a5_a7_proc_1
     + pi_d_a7_a5_proc_0 + 1287 pi_d_a7_a5_proc_1 + 2573 pi_d_a5_a8_proc_0
     + 3859 pi_d_a5_a8_proc_1 + 1286 pi_d_a8_a5_proc_1 + pi_d_a5_a9_proc_2
     + 2573 pi_d_a5_a9_proc_1 + 2572 pi_d_a9_a5_proc_1 + 2572 pi_d_a6_a7_proc_0
     + 2572 pi_d_a6_a7_proc_1 + pi_d_a7_a6_proc_0 + pi_d_a7_a6_proc_1
     + 2572 pi_d_a6_a8_proc_0 + 2572 pi_d_a6_a8_proc_1 + pi_d_a8_a6_proc_0
     + pi_d_a8_a6_proc_1 + pi_d_a6_a9_proc_2 + pi_d_a6_a9_proc_1
     + 2572 pi_d_a9_a6_proc_2 + 2572 pi_d_a9_a6_proc_1 + 2572 pi_d_a7_a8_proc_1
     + pi_d_a8_a7_proc_0 + 2573 pi_d_a8_a7_proc_1 + 5145 pi_d_a9_a7_proc_1
     + 5145 pi_d_a9_a8_proc_1 + pi_y2_a0_proc_1 + pi_y2_a1_proc_2
     + pi_y2_a2_proc_1 + pi_y2_a3_proc_1 + pi_y2_a4_proc_0 + pi_y2_a5_proc_2
     + pi_y2_a6_proc_1 + pi_y2_a7_proc_0 + pi_y2_a8_proc_0 + pi_y2_a9_proc_2 = 
     0.000118008025
 c2: pi_nr_a0 + pi_nr_a1 + pi_nr_a2 + pi_nr_a3 + pi_nr_a4 + pi_nr_a5 + pi_nr_a6
     + pi_nr_a7 + pi_nr_a8 + pi_nr_a9 - pi_y1_a0 - pi_y1_a1 - pi_y1_a2
     - pi_y1_a3 - pi_y1_a4 - pi_y1_a5 - pi_y1_a6 - pi_y1_a7 - pi_y1_a8
     - pi_y1_a9 >= 1
 c3: - pi_p_a1_a0 - pi_p_a3_a0 + pi_p_a0_a1 - pi_p_a6_a0 + pi_d_a0_a1_proc_1
     - pi_d_a1_a0_proc_1 + pi_d_a0_a2_proc_1 - pi_d_a2_a0_proc_1
     + pi_d_a0_a3_proc_1 - pi_d_a3_a0_proc_1 + pi_d_a0_a4_proc_1
     - pi_d_a4_a0_proc_1 + pi_d_a0_a5_proc_1 - pi_d_a5_a0_proc_1
     + pi_d_a0_a6_proc_1 - pi_d_a6_a0_proc_1 + pi_d_a0_a7_proc_1
     - pi_d_a7_a0_proc_1 + pi_d_a0_a8_proc_1 - pi_d_a8_a0_proc_1
     + pi_d_a0_a9_proc_1 - pi_d_a9_a0_proc_1 >= 0
 c4: 1086 pi_p_a0_a1 + 1086 pi_d_a0_a1_proc_1 + 1086 pi_d_a0_a2_proc_1
     + 1086 pi_d_a0_a3_proc_1 + 1086 pi_d_a0_a4_proc_1 + 1086 pi_d_a0_a5_proc_1
     + 1086 pi_d_a0_a6_proc_1 + 1086 pi_d_a0_a7_proc_1 + 1086 pi_d_a0_a8_proc_1
     + 1086 pi_d_a0_a9_proc_1 + pi_y1_a0 + pi_y2_a0_proc_1 >= 0
 c5: pi_p_a1_a0 + pi_p_a1_a2 - pi_p_a8_a1 - pi_p_a0_a1 - pi_d_a0_a1_proc_1
     + pi_d_a1_a0_proc_1 + pi_d_a1_a2_proc_2 + pi_d_a1_a2_proc_0
     + pi_d_a1_a2_proc_1 - pi_d_a2_a1_proc_2 - pi_d_a2_a1_proc_0
     - pi_d_a2_a1_proc_1 + pi_d_a1_a3_proc_0 + pi_d_a1_a3_proc_1
     - pi_d_a3_a1_proc_0 - pi_d_a3_a1_proc_1 + pi_d_a1_a4_proc_2
     + pi_d_a1_a4_proc_0 + pi_d_a1_a4_proc_1 - pi_d_a4_a1_proc_2
     - pi_d_a4_a1_proc_0 - pi_d_a4_a1_proc_1 + pi_d_a1_a5_proc_2
     + pi_d_a1_a5_proc_0 + pi_d_a1_a5_proc_1 - pi_d_a5_a1_proc_2
     - pi_d_a5_a1_proc_0 - pi_d_a5_a1_proc_1 + pi_d_a1_a6_proc_2
     + pi_d_a1_a6_proc_0 + pi_d_a1_a6_proc_1 - pi_d_a6_a1_proc_2
     - pi_d_a6_a1_proc_0 - pi_d_a6_a1_proc_1 + pi_d_a1_a7_proc_0
     + pi_d_a1_a7_proc_1 - pi_d_a7_a1_proc_0 - pi_d_a7_a1_proc_1
     + pi_d_a1_a8_proc_0 + pi_d_a1_a8_proc_1 - pi_d_a8_a1_proc_0
     - pi_d_a8_a1_proc_1 + pi_d_a1_a9_proc_2 + pi_d_a1_a9_proc_1
     - pi_d_a9_a1_proc_2 - pi_d_a9_a1_proc_1 >= 0
 c6: 776 pi_p_a1_a0 + 776 pi_p_a1_a2 + 776 pi_d_a1_a2_proc_0
     + 776 pi_d_a1_a3_proc_0 + 776 pi_d_a1_a4_proc_0 + 776 pi_d_a1_a5_proc_0
     + 776 pi_d_a1_a6_proc_0 + 776 pi_d_a1_a7_proc_0 + 776 pi_d_a1_a8_proc_0
     + pi_y1_a1 + pi_y2_a1_proc_0 >= 0
 c7: 531 pi_p_a1_a0 + 531 pi_p_a1_a2 + 531 pi_d_a1_a0_proc_1
     + 531 pi_d_a1_a2_proc_1 + 531 pi_d_a1_a3_proc_1 + 531 pi_d_a1_a4_proc_1
     + 531 pi_d_a1_a5_proc_1 + 531 pi_d_a1_a6_proc_1 + 531 pi_d_a1_a7_proc_1
     + 531 pi_d_a1_a8_proc_1 + 531 pi_d_a1_a9_proc_1 + pi_y1_a1
     + pi_y2_a1_proc_1 >= 0
 c8: 286 pi_p_a1_a0 + 286 pi_p_a1_a2 + 286 pi_d_a1_a2_proc_2
     + 286 pi_d_a1_a4_proc_2 + 286 pi_d_a1_a5_proc_2 + 286 pi_d_a1_a6_proc_2
     + 286 pi_d_a1_a9_proc_2 + pi_y1_a1 + pi_y2_a1_proc_2 >= 0
 c9: - pi_p_a1_a2 + pi_p_a2_a5 + pi_p_a2_a7 - pi_p_a5_a2 - pi_d_a0_a2_proc_1
     + pi_d_a2_a0_proc_1 - pi_d_a1_a2_proc_2 - pi_d_a1_a2_proc_0
     - pi_d_a1_a2_proc_1 + pi_d_a2_a1_proc_2 + pi_d_a2_a1_proc_0
     + pi_d_a2_a1_proc_1 + pi_d_a2_a3_proc_0 + pi_d_a2_a3_proc_1
     - pi_d_a3_a2_proc_0 - pi_d_a3_a2_proc_1 + pi_d_a2_a4_proc_2
     + pi_d_a2_a4_proc_0 + pi_d_a2_a4_proc_1 - pi_d_a4_a2_proc_2
     - pi_d_a4_a2_proc_0 - pi_d_a4_a2_proc_1 + pi_d_a2_a5_proc_2
     + pi_d_a2_a5_proc_0 + pi_d_a2_a5_proc_1 - pi_d_a5_a2_proc_2
     - pi_d_a5_a2_proc_0 - pi_d_a5_a2_proc_1 + pi_d_a2_a6_proc_2
     + pi_d_a2_a6_proc_0 + pi_d_a2_a6_proc_1 - pi_d_a6_a2_proc_2
     - pi_d_a6_a2_proc_0 - pi_d_a6_a2_proc_1 + pi_d_a2_a7_proc_0
     + pi_d_a2_a7_proc_1 - pi_d_a7_a2_proc_0 - pi_d_a7_a2_proc_1
     + pi_d_a2_a8_proc_0 + pi_d_a2_a8_proc_1 - pi_d_a8_a2_proc_0
     - pi_d_a8_a2_proc_1 + pi_d_a2_a9_proc_2 + pi_d_a2_a9_proc_1
     - pi_d_a9_a2_proc_2 - pi_d_a9_a2_proc_1 >= 0
 c10: 988 pi_p_a2_a5 + 988 pi_p_a2_a7 + 988 pi_d_a2_a1_proc_0
      + 988 pi_d_a2_a3_proc_0 + 988 pi_d_a2_a4_proc_0 + 988 pi_d_a2_a5_proc_0
      + 988 pi_d_a2_a6_proc_0 + 988 pi_d_a2_a7_proc_0 + 988 pi_d_a2_a8_proc_0
      + pi_y1_a2 + pi_y2_a2_proc_0 >= 0
 c11: 736 pi_p_a2_a5 + 736 pi_p_a2_a7 + 736 pi_d_a2_a0_proc_1
      + 736 pi_d_a2_a1_proc_1 + 736 pi_d_a2_a3_proc_1 + 736 pi_d_a2_a4_proc_1
      + 736 pi_d_a2_a5_proc_1 + 736 pi_d_a2_a6_proc_1 + 736 pi_d_a2_a7_proc_1
      + 736 pi_d_a2_a8_proc_1 + 736 pi_d_a2_a9_proc_1 + pi_y1_a2
      + pi_y2_a2_proc_1 >= 0
 c12: 778 pi_p_a2_a5 + 778 pi_p_a2_a7 + 778 pi_d_a2_a1_proc_2
      + 778 pi_d_a2_a4_proc_2 + 778 pi_d_a2_a5_proc_2 + 778 pi_d_a2_a6_proc_2
      + 778 pi_d_a2_a9_proc_2 + pi_y1_a2 + pi_y2_a2_proc_2 >= 0
 c13: pi_p_a3_a0 - pi_p_a4_a3 - pi_d_a0_a3_proc_1 + pi_d_a3_a0_proc_1
      - pi_d_a1_a3_proc_0 - pi_d_a1_a3_proc_1 + pi_d_a3_a1_proc_0
      + pi_d_a3_a1_proc_1 - pi_d_a2_a3_proc_0 - pi_d_a2_a3_proc_1
      + pi_d_a3_a2_proc_0 + pi_d_a3_a2_proc_1 + pi_d_a3_a4_proc_0
      + pi_d_a3_a4_proc_1 - pi_d_a4_a3_proc_0 - pi_d_a4_a3_proc_1
      + pi_d_a3_a5_proc_0 + pi_d_a3_a5_proc_1 - pi_d_a5_a3_proc_0
      - pi_d_a5_a3_proc_1 + pi_d_a3_a6_proc_0 + pi_d_a3_a6_proc_1
      - pi_d_a6_a3_proc_0 - pi_d_a6_a3_proc_1 + pi_d_a3_a7_proc_0
      + pi_d_a3_a7_proc_1 - pi_d_a7_a3_proc_0 - pi_d_a7_a3_proc_1
      + pi_d_a3_a8_proc_0 + pi_d_a3_a8_proc_1 - pi_d_a8_a3_proc_0
      - pi_d_a8_a3_proc_1 + pi_d_a3_a9_proc_1 - pi_d_a9_a3_proc_1 >= 0
 c14: 545 pi_p_a3_a0 + 545 pi_d_a3_a1_proc_0 + 545 pi_d_a3_a2_proc_0
      + 545 pi_d_a3_a4_proc_0 + 545 pi_d_a3_a5_proc_0 + 545 pi_d_a3_a6_proc_0
      + 545 pi_d_a3_a7_proc_0 + 545 pi_d_a3_a8_proc_0 + pi_y1_a3
      + pi_y2_a3_proc_0 >= 0
 c15: 939 pi_p_a3_a0 + 939 pi_d_a3_a0_proc_1 + 939 pi_d_a3_a1_proc_1
      + 939 pi_d_a3_a2_proc_1 + 939 pi_d_a3_a4_proc_1 + 939 pi_d_a3_a5_proc_1
      + 939 pi_d_a3_a6_proc_1 + 939 pi_d_a3_a7_proc_1 + 939 pi_d_a3_a8_proc_1
      + 939 pi_d_a3_a9_proc_1 + pi_y1_a3 + pi_y2_a3_proc_1 >= 0
 c16: pi_p_a4_a3 - pi_p_a9_a4 - pi_p_a6_a4 - pi_p_a5_a4 - pi_d_a0_a4_proc_1
      + pi_d_a4_a0_proc_1 - pi_d_a1_a4_proc_2 - pi_d_a1_a4_proc_0
      - pi_d_a1_a4_proc_1 + pi_d_a4_a1_proc_2 + pi_d_a4_a1_proc_0
      + pi_d_a4_a1_proc_1 - pi_d_a2_a4_proc_2 - pi_d_a2_a4_proc_0
      - pi_d_a2_a4_proc_1 + pi_d_a4_a2_proc_2 + pi_d_a4_a2_proc_0
      + pi_d_a4_a2_proc_1 - pi_d_a3_a4_proc_0 - pi_d_a3_a4_proc_1
      + pi_d_a4_a3_proc_0 + pi_d_a4_a3_proc_1 + pi_d_a4_a5_proc_2
      + pi_d_a4_a5_proc_0 + pi_d_a4_a5_proc_1 - pi_d_a5_a4_proc_2
      - pi_d_a5_a4_proc_0 - pi_d_a5_a4_proc_1 + pi_d_a4_a6_proc_2
      + pi_d_a4_a6_proc_0 + pi_d_a4_a6_proc_1 - pi_d_a6_a4_proc_2
      - pi_d_a6_a4_proc_0 - pi_d_a6_a4_proc_1 + pi_d_a4_a7_proc_0
      + pi_d_a4_a7_proc_1 - pi_d_a7_a4_proc_0 - pi_d_a7_a4_proc_1
      + pi_d_a4_a8_proc_0 + pi_d_a4_a8_proc_1 - pi_d_a8_a4_proc_0
      - pi_d_a8_a4_proc_1 + pi_d_a4_a9_proc_2 + pi_d_a4_a9_proc_1
      - pi_d_a9_a4_proc_2 - pi_d_a9_a4_proc_1 >= 0
 c17: 768 pi_p_a4_a3 + 768 pi_d_a4_a1_proc_0 + 768 pi_d_a4_a2_proc_0
      + 768 pi_d_a4_a3_proc_0 + 768 pi_d_a4_a5_proc_0 + 768 pi_d_a4_a6_proc_0
      + 768 pi_d_a4_a7_proc_0 + 768 pi_d_a4_a8_proc_0 + pi_y1_a4
      + pi_y2_a4_proc_0 >= 0
 c18: 1286 pi_p_a4_a3 + 1286 pi_d_a4_a0_proc_1 + 1286 pi_d_a4_a1_proc_1
      + 1286 pi_d_a4_a2_proc_1 + 1286 pi_d_a4_a3_proc_1 + 1286 pi_d_a4_a5_proc_1
      + 1286 pi_d_a4_a6_proc_1 + 1286 pi_d_a4_a7_proc_1 + 1286 pi_d_a4_a8_proc_1
      + 1286 pi_d_a4_a9_proc_1 + pi_y1_a4 + pi_y2_a4_proc_1 >= 0
 c19: 1201 pi_p_a4_a3 + 1201 pi_d_a4_a1_proc_2 + 1201 pi_d_a4_a2_proc_2
      + 1201 pi_d_a4_a5_proc_2 + 1201 pi_d_a4_a6_proc_2 + 1201 pi_d_a4_a9_proc_2
      + pi_y1_a4 + pi_y2_a4_proc_2 >= 0
 c20: - pi_p_a2_a5 + pi_p_a5_a6 + pi_p_a5_a2 + pi_p_a5_a4 - pi_d_a0_a5_proc_1
      + pi_d_a5_a0_proc_1 - pi_d_a1_a5_proc_2 - pi_d_a1_a5_proc_0
      - pi_d_a1_a5_proc_1 + pi_d_a5_a1_proc_2 + pi_d_a5_a1_proc_0
      + pi_d_a5_a1_proc_1 - pi_d_a2_a5_proc_2 - pi_d_a2_a5_proc_0
      - pi_d_a2_a5_proc_1 + pi_d_a5_a2_proc_2 + pi_d_a5_a2_proc_0
      + pi_d_a5_a2_proc_1 - pi_d_a3_a5_proc_0 - pi_d_a3_a5_proc_1
      + pi_d_a5_a3_proc_0 + pi_d_a5_a3_proc_1 - pi_d_a4_a5_proc_2
      - pi_d_a4_a5_proc_0 - pi_d_a4_a5_proc_1 + pi_d_a5_a4_proc_2
      + pi_d_a5_a4_proc_0 + pi_d_a5_a4_proc_1 + pi_d_a5_a6_proc_2
      + pi_d_a5_a6_proc_0 + pi_d_a5_a6_proc_1 - pi_d_a6_a5_proc_2
      - pi_d_a6_a5_proc_0 - pi_d_a6_a5_proc_1 + pi_d_a5_a7_proc_0
      + pi_d_a5_a7_proc_1 - pi_d_a7_a5_proc_0 - pi_d_a7_a5_proc_1
      + pi_d_a5_a8_proc_0 + pi_d_a5_a8_proc_1 - pi_d_a8_a5_proc_0
      - pi_d_a8_a5_proc_1 + pi_d_a5_a9_proc_2 + pi_d_a5_a9_proc_1
      - pi_d_a9_a5_proc_2 - pi_d_a9_a5_proc_1 >= 0
 c21: 305 pi_p_a5_a6 + 305 pi_p_a5_a2 + 305 pi_p_a5_a4 + 305 pi_d_a5_a1_proc_0
      + 305 pi_d_a5_a2_proc_0 + 305 pi_d_a5_a3_proc_0 + 305 pi_d_a5_a4_proc_0
      + 305 pi_d_a5_a6_proc_0 + 305 pi_d_a5_a7_proc_0 + 305 pi_d_a5_a8_proc_0
      + pi_y1_a5 + pi_y2_a5_proc_0 >= 0
 c22: 1005 pi_p_a5_a6 + 1005 pi_p_a5_a2 + 1005 pi_p_a5_a4
      + 1005 pi_d_a5_a0_proc_1 + 1005 pi_d_a5_a1_proc_1 + 1005 pi_d_a5_a2_proc_1
      + 1005 pi_d_a5_a3_proc_1 + 1005 pi_d_a5_a4_proc_1 + 1005 pi_d_a5_a6_proc_1
      + 1005 pi_d_a5_a7_proc_1 + 1005 pi_d_a5_a8_proc_1 + 1005 pi_d_a5_a9_proc_1
      + pi_y1_a5 + pi_y2_a5_proc_1 >= 0
 c23: 1122 pi_p_a5_a6 + 1122 pi_p_a5_a2 + 1122 pi_p_a5_a4
      + 1122 pi_d_a5_a1_proc_2 + 1122 pi_d_a5_a2_proc_2 + 1122 pi_d_a5_a4_proc_2
      + 1122 pi_d_a5_a6_proc_2 + 1122 pi_d_a5_a9_proc_2 + pi_y1_a5
      + pi_y2_a5_proc_2 >= 0
 c24: - pi_p_a5_a6 + pi_p_a6_a4 + pi_p_a6_a0 - pi_d_a0_a6_proc_1
      + pi_d_a6_a0_proc_1 - pi_d_a1_a6_proc_2 - pi_d_a1_a6_proc_0
      - pi_d_a1_a6_proc_1 + pi_d_a6_a1_proc_2 + pi_d_a6_a1_proc_0
      + pi_d_a6_a1_proc_1 - pi_d_a2_a6_proc_2 - pi_d_a2_a6_proc_0
      - pi_d_a2_a6_proc_1 + pi_d_a6_a2_proc_2 + pi_d_a6_a2_proc_0
      + pi_d_a6_a2_proc_1 - pi_d_a3_a6_proc_0 - pi_d_a3_a6_proc_1
      + pi_d_a6_a3_proc_0 + pi_d_a6_a3_proc_1 - pi_d_a4_a6_proc_2
      - pi_d_a4_a6_proc_0 - pi_d_a4_a6_proc_1 + pi_d_a6_a4_proc_2
      + pi_d_a6_a4_proc_0 + pi_d_a6_a4_proc_1 - pi_d_a5_a6_proc_2
      - pi_d_a5_a6_proc_0 - pi_d_a5_a6_proc_1 + pi_d_a6_a5_proc_2
      + pi_d_a6_a5_proc_0 + pi_d_a6_a5_proc_1 + pi_d_a6_a7_proc_0
      + pi_d_a6_a7_proc_1 - pi_d_a7_a6_proc_0 - pi_d_a7_a6_proc_1
      + pi_d_a6_a8_proc_0 + pi_d_a6_a8_proc_1 - pi_d_a8_a6_proc_0
      - pi_d_a8_a6_proc_1 + pi_d_a6_a9_proc_2 + pi_d_a6_a9_proc_1
      - pi_d_a9_a6_proc_2 - pi_d_a9_a6_proc_1 >= 0
 c25: 1222 pi_p_a6_a4 + 1222 pi_p_a6_a0 + 1222 pi_p_a6_a6
      + 1222 pi_d_a6_a1_proc_0 + 1222 pi_d_a6_a2_proc_0 + 1222 pi_d_a6_a3_proc_0
      + 1222 pi_d_a6_a4_proc_0 + 1222 pi_d_a6_a5_proc_0 + 1222 pi_d_a6_a7_proc_0
      + 1222 pi_d_a6_a8_proc_0 + pi_y1_a6 + pi_y2_a6_proc_0 >= 0
 c26: 908 pi_p_a6_a4 + 908 pi_p_a6_a0 + 908 pi_p_a6_a6 + 908 pi_d_a6_a0_proc_1
      + 908 pi_d_a6_a1_proc_1 + 908 pi_d_a6_a2_proc_1 + 908 pi_d_a6_a3_proc_1
      + 908 pi_d_a6_a4_proc_1 + 908 pi_d_a6_a5_proc_1 + 908 pi_d_a6_a7_proc_1
      + 908 pi_d_a6_a8_proc_1 + 908 pi_d_a6_a9_proc_1 + pi_y1_a6
      + pi_y2_a6_proc_1 >= 0
 c27: 911 pi_p_a6_a4 + 911 pi_p_a6_a0 + 911 pi_p_a6_a6 + 911 pi_d_a6_a1_proc_2
      + 911 pi_d_a6_a2_proc_2 + 911 pi_d_a6_a4_proc_2 + 911 pi_d_a6_a5_proc_2
      + 911 pi_d_a6_a9_proc_2 + pi_y1_a6 + pi_y2_a6_proc_2 >= 0
 c28: - pi_p_a2_a7 + pi_p_a7_a9 + pi_p_a7_a8 - pi_d_a0_a7_proc_1
      + pi_d_a7_a0_proc_1 - pi_d_a1_a7_proc_0 - pi_d_a1_a7_proc_1
      + pi_d_a7_a1_proc_0 + pi_d_a7_a1_proc_1 - pi_d_a2_a7_proc_0
      - pi_d_a2_a7_proc_1 + pi_d_a7_a2_proc_0 + pi_d_a7_a2_proc_1
      - pi_d_a3_a7_proc_0 - pi_d_a3_a7_proc_1 + pi_d_a7_a3_proc_0
      + pi_d_a7_a3_proc_1 - pi_d_a4_a7_proc_0 - pi_d_a4_a7_proc_1
      + pi_d_a7_a4_proc_0 + pi_d_a7_a4_proc_1 - pi_d_a5_a7_proc_0
      - pi_d_a5_a7_proc_1 + pi_d_a7_a5_proc_0 + pi_d_a7_a5_proc_1
      - pi_d_a6_a7_proc_0 - pi_d_a6_a7_proc_1 + pi_d_a7_a6_proc_0
      + pi_d_a7_a6_proc_1 + pi_d_a7_a8_proc_0 + pi_d_a7_a8_proc_1
      - pi_d_a8_a7_proc_0 - pi_d_a8_a7_proc_1 + pi_d_a7_a9_proc_1
      - pi_d_a9_a7_proc_1 >= 0
 c29: 622 pi_p_a7_a7 + 622 pi_p_a7_a9 + 622 pi_p_a7_a8 + 622 pi_d_a7_a1_proc_0
      + 622 pi_d_a7_a2_proc_0 + 622 pi_d_a7_a3_proc_0 + 622 pi_d_a7_a4_proc_0
      + 622 pi_d_a7_a5_proc_0 + 622 pi_d_a7_a6_proc_0 + 622 pi_d_a7_a8_proc_0
      + pi_y1_a7 + pi_y2_a7_proc_0 >= 0
 c30: 705 pi_p_a7_a7 + 705 pi_p_a7_a9 + 705 pi_p_a7_a8 + 705 pi_d_a7_a0_proc_1
      + 705 pi_d_a7_a1_proc_1 + 705 pi_d_a7_a2_proc_1 + 705 pi_d_a7_a3_proc_1
      + 705 pi_d_a7_a4_proc_1 + 705 pi_d_a7_a5_proc_1 + 705 pi_d_a7_a6_proc_1
      + 705 pi_d_a7_a8_proc_1 + 705 pi_d_a7_a9_proc_1 + pi_y1_a7
      + pi_y2_a7_proc_1 >= 0
 c31: pi_p_a8_a1 + pi_p_a8_a9 - pi_p_a7_a8 - pi_d_a0_a8_proc_1
      + pi_d_a8_a0_proc_1 - pi_d_a1_a8_proc_0 - pi_d_a1_a8_proc_1
      + pi_d_a8_a1_proc_0 + pi_d_a8_a1_proc_1 - pi_d_a2_a8_proc_0
      - pi_d_a2_a8_proc_1 + pi_d_a8_a2_proc_0 + pi_d_a8_a2_proc_1
      - pi_d_a3_a8_proc_0 - pi_d_a3_a8_proc_1 + pi_d_a8_a3_proc_0
      + pi_d_a8_a3_proc_1 - pi_d_a4_a8_proc_0 - pi_d_a4_a8_proc_1
      + pi_d_a8_a4_proc_0 + pi_d_a8_a4_proc_1 - pi_d_a5_a8_proc_0
      - pi_d_a5_a8_proc_1 + pi_d_a8_a5_proc_0 + pi_d_a8_a5_proc_1
      - pi_d_a6_a8_proc_0 - pi_d_a6_a8_proc_1 + pi_d_a8_a6_proc_0
      + pi_d_a8_a6_proc_1 - pi_d_a7_a8_proc_0 - pi_d_a7_a8_proc_1
      + pi_d_a8_a7_proc_0 + pi_d_a8_a7_proc_1 + pi_d_a8_a9_proc_1
      - pi_d_a9_a8_proc_1 >= 0
 c32: 879 pi_p_a8_a1 + 879 pi_p_a8_a9 + 879 pi_d_a8_a1_proc_0
      + 879 pi_d_a8_a2_proc_0 + 879 pi_d_a8_a3_proc_0 + 879 pi_d_a8_a4_proc_0
      + 879 pi_d_a8_a5_proc_0 + 879 pi_d_a8_a6_proc_0 + 879 pi_d_a8_a7_proc_0
      + pi_y1_a8 + pi_y2_a8_proc_0 >= 0
 c33: 811 pi_p_a8_a1 + 811 pi_p_a8_a9 + 811 pi_d_a8_a0_proc_1
      + 811 pi_d_a8_a1_proc_1 + 811 pi_d_a8_a2_proc_1 + 811 pi_d_a8_a3_proc_1
      + 811 pi_d_a8_a4_proc_1 + 811 pi_d_a8_a5_proc_1 + 811 pi_d_a8_a6_proc_1
      + 811 pi_d_a8_a7_proc_1 + 811 pi_d_a8_a9_proc_1 + pi_y1_a8
      + pi_y2_a8_proc_1 >= 0
 c34: pi_p_a9_a4 - pi_p_a8_a9 - pi_p_a7_a9 - pi_d_a0_a9_proc_1
      + pi_d_a9_a0_proc_1 - pi_d_a1_a9_proc_2 - pi_d_a1_a9_proc_1
      + pi_d_a9_a1_proc_2 + pi_d_a9_a1_proc_1 - pi_d_a2_a9_proc_2
      - pi_d_a2_a9_proc_1 + pi_d_a9_a2_proc_2 + pi_d_a9_a2_proc_1
      - pi_d_a3_a9_proc_1 + pi_d_a9_a3_proc_1 - pi_d_a4_a9_proc_2
      - pi_d_a4_a9_proc_1 + pi_d_a9_a4_proc_2 + pi_d_a9_a4_proc_1
      - pi_d_a5_a9_proc_2 - pi_d_a5_a9_proc_1 + pi_d_a9_a5_proc_2
      + pi_d_a9_a5_proc_1 - pi_d_a6_a9_proc_2 - pi_d_a6_a9_proc_1
      + pi_d_a9_a6_proc_2 + pi_d_a9_a6_proc_1 - pi_d_a7_a9_proc_1
      + pi_d_a9_a7_proc_1 - pi_d_a8_a9_proc_1 + pi_d_a9_a8_proc_1 >= 0
 c35: 677 pi_p_a9_a4 + 677 pi_d_a9_a0_proc_1 + 677 pi_d_a9_a1_proc_1
      + 677 pi_d_a9_a2_proc_1 + 677 pi_d_a9_a3_proc_1 + 677 pi_d_a9_a4_proc_1
      + 677 pi_d_a9_a5_proc_1 + 677 pi_d_a9_a6_proc_1 + 677 pi_d_a9_a7_proc_1
      + 677 pi_d_a9_a8_proc_1 + pi_y1_a9 + pi_y2_a9_proc_1 >= 0
 c36: 1128 pi_p_a9_a4 + 1128 pi_d_a9_a1_proc_2 + 1128 pi_d_a9_a2_proc_2
      + 1128 pi_d_a9_a4_proc_2 + 1128 pi_d_a9_a5_proc_2 + 1128 pi_d_a9_a6_proc_2
      + pi_y1_a9 + pi_y2_a9_proc_2 >= 0

Bounds
       pi_y1_a0 Free
       pi_y1_a1 Free
       pi_y1_a2 Free
       pi_y1_a3 Free
       pi_y1_a4 Free
       pi_y1_a5 Free
       pi_y1_a6 Free
       pi_y1_a7 Free
       pi_y1_a8 Free
       pi_y1_a9 Free
End
